Route #1: 6 22 14 7 1 2 8 3 17 24 38 37 23 30 16 15 29 36 45 46 41 47 52 53 48 59 65 64 63 72 62 51 58 57 71 77 87 88 94 95 78 79 73 80 84 89 96 97 85 90 82 81 66 54 67 68 74 91 98 92 99 100 93 86 83 76 75 69 70 61 50 56 44 49 60 55 43 39 42 31 18 9 10 11 25 26 19 4 12 27 32 33 34 35 40 28 21 20 13 5
Cost 45369
